7863489346305089290509,5,1,2,03,4,1,2,06,15,1,2,04,10,1,2,06,5,1,2,01,14,1,2,09,6,1,2,05,1,1,2,03,5,1,2,05,1,1,2,04,9,1,2,03,2,1,2,04,10,1,2,01,9,1,2,04,1,1,2,011,14,1,2,04,8,1,2,012,8,1,2,05,2,1,2,07,6,1,2,06,4,1,2,05,9,1,2,010,6,1,2,011,11,1,2,04,15,1,2,08,12,1,2,06,7,1,2,05,14,1,2,04,11,1,2,06,1,1,2,014,11,1,2,014,9,1,2,07,2,1,2,08,9,1,2,012,2,1,2,02,4,1,2,03,12,1,2,06,11,1,2,012,2,1,2,01,13,1,2,03,3,1,2,012,1,1,2,02,14,1,2,011,6,1,2,011,12,1,2,013,10,1,2,012,9,1,2,015,8,1,2,03,1,1,2,09,13,1,2,0